NAME          MyModel
ROWS
 N  OBJ
 L  c1
 E  c2
 G  c3
 E  c4
COLUMNS
    x1        OBJ      -2
    x1        c2        4
    x1        c3       -3
    x2        OBJ       4
    x2        c2       -3
    x2        c3        2
    x3        OBJ      -2
    x3        c1       -3
    x3        c2        8
    x3        c4       -1
    x4        OBJ       2
    x4        c2       -1
    x4        c3       -4
RHS
    RHS1      c1        2
    RHS1      c2       20
    RHS1      c3       -8
    RHS1      c4       18
BOUNDS
 LO BND1      x1        0
 LO BND1      x2        0
 LO BND1      x3        0
 LO BND1      x4        0
ENDATA
